Problem:    
Rows:       163
Columns:    57 (42 integer, 42 binary)
Non-zeros:  620
Status:     INTEGER OPTIMAL
Objective:  value = 88.13208 (MINimum)

   No.   Row name        Activity     Lower bound   Upper bound
------ ------------    ------------- ------------- -------------
     1 r.5                   1088.13             0               
     2 r.6                  -928.272      -968.092               
     3 r.7                   88.1321             0               
     4 r.8                   71.7277      -938.135               
     5 r.9                   88.1321             0               
     6 r.10                  73.8929      -970.079               
     7 r.11                  1088.13             0               
     8 r.12                 -930.269      -955.516               
     9 r.13                  1088.13             0               
    10 r.14                  -960.18      -975.527               
    11 r.15                  88.1321             0               
    12 r.16                  71.7277      -968.216               
    13 r.17                  1088.13             0               
    14 r.18                 -985.448      -995.418               
    15 r.19                  88.1321             0               
    16 r.20                  26.2275      -996.517               
    17 r.21                  88.1321             0               
    18 r.22                  42.7803      -986.695               
    19 r.23                  1088.13             0               
    20 r.24                 -977.732      -983.389               
    21 r.25                  1088.13             0               
    22 r.26                 -995.932      -995.932               
    23 r.27                  88.1321             0               
    24 r.28                  7.61967      -967.632               
    25 r.29                  1088.13             0               
    26 r.30                 -911.868      -983.596               
    27 r.31                  88.1321             0               
    28 r.32                  88.1321       -978.19               
    29 r.33                        1             1             = 
    30 r.34                        1             1             = 
    31 r.35                        1             1             = 
    32 r.36                        1             1             = 
    33 r.37                        1             1             = 
    34 r.38                        1             1             = 
    35 r.39                        1             1             = 
    36 r.40                     1001             2               
    37 r.41                    -1001         -1001               
    38 r.42                  2002.17      -970.079               
    39 r.43                     1001             2               
    40 r.44                    -1001         -1001               
    41 r.45                     1998      -955.516               
    42 r.46                        2             2               
    43 r.47                       -2         -1001               
    44 r.48                 -31.9075      -975.527               
    45 r.49                     1000             2               
    46 r.50                    -1000         -1001               
    47 r.51                     2000      -968.216               
    48 r.52                 -943.619      -968.092               
    49 r.53                   56.381      -938.135               
    50 r.54                 -953.519      -968.092               
    51 r.55                  46.4813      -938.135               
    52 r.56                 -968.092      -968.092               
    53 r.57                  31.9075      -938.135               
    54 r.58                 -953.519      -968.092               
    55 r.59                  46.4813      -938.135               
    56 r.60                 -983.596      -983.596               
    57 r.61                  16.4044       -978.19               
    58 r.62                 -983.596      -983.596               
    59 r.63                  16.4044       -978.19               
    60 r.64                     1001             2               
    61 r.65                    -1001         -1001               
    62 r.66                     2000       31.9075               
    63 r.67                     1001             2               
    64 r.68                    -1001         -1001               
    65 r.69                     2000       61.8653               
    66 r.70                     1001             2               
    67 r.71                    -1001         -1001               
    68 r.72                  1968.09      -975.527               
    69 r.73                     1001             2               
    70 r.74                    -1001         -1001               
    71 r.75                     2000      -968.216               
    72 r.76                  58.5461      -970.079               
    73 r.77                 -945.616      -955.516               
    74 r.78                  48.6465      -970.079               
    75 r.79                 -955.516      -955.516               
    76 r.80                     1000             2               
    77 r.81                    -1000         -1001               
    78 r.82                  1971.05      -986.695               
    79 r.83                        2             2               
    80 r.84                       -2         -1001               
    81 r.85                 -49.4596      -983.389               
    82 r.86                  68.2354      -970.079               
    83 r.87                 -935.927      -955.516               
    84 r.88                  68.2354      -970.079               
    85 r.89                 -935.927      -955.516               
    86 r.90                 -983.596      -983.596               
    87 r.91                  16.4044       -978.19               
    88 r.92                 -983.596      -983.596               
    89 r.93                  16.4044       -978.19               
    90 r.94                        2             2               
    91 r.95                       -2         -1001               
    92 r.96                  31.9075       31.9075               
    93 r.97                     1000             2               
    94 r.98                    -1000         -1001               
    95 r.99                     2000       61.8653               
    96 r.100                    1001             2               
    97 r.101                   -1001         -1001               
    98 r.102                 2034.07       29.9209               
    99 r.103                    1001             2               
   100 r.104                   -1001         -1001               
   101 r.105                    1998       44.4842               
   102 r.106                       2             2               
   103 r.107                      -2         -1001               
   104 r.108                -25.2684      -995.418               
   105 r.109                    1000             2               
   106 r.110                   -1000         -1001               
   107 r.111                  1954.5      -996.517               
   108 r.112                    1001             2               
   109 r.113                   -1001         -1001               
   110 r.114                 2002.96      -986.695               
   111 r.115                    1001             2               
   112 r.116                   -1001         -1001               
   113 r.117                 1950.54      -983.389               
   114 r.118                -965.837      -975.527               
   115 r.119                 66.0703      -968.216               
   116 r.120                -965.837      -975.527               
   117 r.121                 66.0703      -968.216               
   118 r.122                -951.688      -983.596               
   119 r.123                 48.3119       -978.19               
   120 r.124                -983.596      -983.596               
   121 r.125                 16.4044       -978.19               
   122 r.126                       2             2               
   123 r.127                      -2         -1001               
   124 r.128                 24.4735       24.4735               
   125 r.129                    1000             2               
   126 r.130                   -1000         -1001               
   127 r.131                 2046.48       31.7843               
   128 r.132                    1001             2               
   129 r.133                   -1001         -1001               
   130 r.134                 2027.43      -986.695               
   131 r.135                    1001             2               
   132 r.136                   -1001         -1001               
   133 r.137                 1997.02      -983.389               
   134 r.138                -991.106      -995.418               
   135 r.139                 20.5701      -996.517               
   136 r.140                -991.106      -995.418               
   137 r.141                 20.5701      -996.517               
   138 r.142                    1000             2               
   139 r.143                   -1000         -1001               
   140 r.144                 2034.07       29.9209               
   141 r.145                       2             2               
   142 r.146                      -2         -1001               
   143 r.147                 44.4842       44.4842               
   144 r.148                    1001             2               
   145 r.149                   -1001         -1001               
   146 r.150                    2000       24.4735               
   147 r.151                    1001             2               
   148 r.152                   -1001         -1001               
   149 r.153                 2046.48       31.7843               
   150 r.154                    1001             2               
   151 r.155                   -1001         -1001               
   152 r.156                 1974.73        4.5815               
   153 r.157                    1001             2               
   154 r.158                   -1001         -1001               
   155 r.159                 2000.98       3.48344               
   156 r.160                 37.1228      -986.695               
   157 r.161                -983.389      -983.389               
   158 r.162                 37.1228      -986.695               
   159 r.163                -983.389      -983.389               
   160 r.164                -951.688      -983.596               
   161 r.165                 48.3119       -978.19               
   162 r.166                -937.114      -983.596               
   163 r.167                 62.8857       -978.19               

   No. Column name       Activity     Lower bound   Upper bound
------ ------------    ------------- ------------- -------------
     1 tt                    88.1321             0               
     2 s_1_1        *              1             0             1 
     3 t_1_1                 16.4044             0               
     4 s_1_7        *              1             0             1 
     5 s_2_1        *              0             0             1 
     6 t_2_1                 16.4044             0               
     7 s_2_7        *              0             0             1 
     8 s_1_2        *              0             0             1 
     9 t_1_2                 16.4044             0               
    10 s_2_2        *              1             0             1 
    11 t_2_2                 16.4044             0               
    12 s_1_3        *              1             0             1 
    13 t_1_3                 48.3119             0               
    14 s_2_3        *              0             0             1 
    15 t_2_3                 16.4044             0               
    16 s_1_4        *              1             0             1 
    17 t_1_4                 72.7854             0               
    18 s_2_4        *              0             0             1 
    19 t_2_4                 62.8857             0               
    20 s_1_5        *              0             0             1 
    21 t_1_5                 48.3119             0               
    22 s_2_5        *              1             0             1 
    23 t_2_5                 62.8857             0               
    24 s_1_6        *              1             0             1 
    25 t_1_6                 82.4747             0               
    26 s_2_6        *              0             0             1 
    27 t_2_6                 82.4747             0               
    28 t_1_7                       0             0               
    29 t_2_7                       0             0               
    30 r_1_1_2      *              1             0             1 
    31 u_1_1_2      *              0             0             1 
    32 r_2_1_2      *              1             0             1 
    33 u_2_1_2      *              0             0             1 
    34 r_1_1_3      *              0             0             1 
    35 u_1_1_3      *              0             0             1 
    36 r_2_1_3      *              1             0             1 
    37 u_2_1_3      *              0             0             1 
    38 r_1_2_3      *              1             0             1 
    39 u_1_2_3      *              0             0             1 
    40 r_2_2_3      *              1             0             1 
    41 u_2_2_3      *              0             0             1 
    42 r_1_2_5      *              1             0             1 
    43 u_1_2_5      *              0             0             1 
    44 r_2_2_5      *              0             0             1 
    45 u_2_2_5      *              0             0             1 
    46 r_1_3_4      *              0             0             1 
    47 u_1_3_4      *              0             0             1 
    48 r_2_3_4      *              1             0             1 
    49 u_2_3_4      *              0             0             1 
    50 r_1_3_5      *              1             0             1 
    51 u_1_3_5      *              0             0             1 
    52 r_2_3_5      *              1             0             1 
    53 u_2_3_5      *              0             0             1 
    54 r_1_4_5      *              1             0             1 
    55 u_1_4_5      *              0             0             1 
    56 r_2_4_5      *              1             0             1 
    57 u_2_4_5      *              0             0             1 

Integer feasibility conditions:

KKT.PE: max.abs.err = 4.55e-13 on row 22
        max.rel.err = 2.09e-16 on row 22
        High quality

KKT.PB: max.abs.err = 3.41e-13 on row 22
        max.rel.err = 3.42e-16 on row 22
        High quality

End of output
